75
1 0 6
2 0 86
2 1 91
3 0 79
3 1 39
3 2 19
4 0 40
4 1 49
4 2 66
4 3 40
5 0 23
5 1 75
5 2 40
5 3 31
5 4 80
6 0 40
6 1 64
6 2 45
6 3 42
6 4 58
6 5 33
7 0 85
7 1 40
7 2 25
7 3 94
7 4 33
7 5 90
7 6 86
8 0 1
8 1 44
8 2 81
8 3 69
8 4 82
8 5 9
8 6 27
8 7 11
9 0 13
9 1 79
9 2 97
9 3 70
9 4 84
9 5 17
9 6 5
9 7 84
9 8 15
10 0 74
10 1 24
10 2 42
10 3 31
10 4 54
10 5 79
10 6 64
10 7 14
10 8 96
10 9 5
11 0 14
11 1 100
11 2 71
11 3 91
11 4 82
11 5 84
11 6 96
11 7 49
11 8 18
11 9 37
11 10 12
12 0 69
12 1 9
12 2 71
12 3 60
12 4 46
12 5 7
12 6 92
12 7 61
12 8 10
12 9 83
12 10 27
12 11 93
13 0 74
13 1 45
13 2 20
13 3 12
13 4 85
13 5 38
13 6 34
13 7 58
13 8 57
13 9 37
13 10 92
13 11 47
13 12 8
14 0 85
14 1 63
14 2 43
14 3 24
14 4 36
14 5 61
14 6 52
14 7 43
14 8 9
14 9 18
14 10 90
14 11 13
14 12 74
14 13 49
15 0 18
15 1 75
15 2 5
15 3 20
15 4 40
15 5 78
15 6 83
15 7 89
15 8 100
15 9 11
15 10 35
15 11 73
15 12 51
15 13 40
15 14 38
16 0 77
16 1 52
16 2 48
16 3 28
16 4 68
16 5 29
16 6 42
16 7 85
16 8 94
16 9 15
16 10 70
16 11 93
16 12 77
16 13 32
16 14 49
16 15 95
17 0 30
17 1 99
17 2 19
17 3 84
17 4 76
17 5 80
17 6 50
17 7 4
17 8 73
17 9 94
17 10 87
17 11 66
17 12 62
17 13 50
17 14 3
17 15 76
17 16 9
18 0 93
18 1 84
18 2 47
18 3 98
18 4 71
18 5 87
18 6 50
18 7 87
18 8 43
18 9 28
18 10 3
18 11 55
18 12 1
18 13 97
18 14 19
18 15 86
18 16 90
18 17 9
19 0 64
19 1 78
19 2 11
19 3 38
19 4 84
19 5 56
19 6 76
19 7 82
19 8 8
19 9 50
19 10 40
19 11 72
19 12 42
19 13 57
19 14 18
19 15 22
19 16 2
19 17 84
19 18 75
20 0 60
20 1 52
20 2 70
20 3 38
20 4 18
20 5 55
20 6 6
20 7 83
20 8 54
20 9 34
20 10 16
20 11 75
20 12 30
20 13 23
20 14 71
20 15 76
20 16 86
20 17 43
20 18 32
20 19 51
21 0 69
21 1 22
21 2 66
21 3 34
21 4 11
21 5 77
21 6 64
21 7 26
21 8 63
21 9 90
21 10 56
21 11 51
21 12 42
21 13 66
21 14 19
21 15 88
21 16 31
21 17 59
21 18 3
21 19 43
21 20 42
22 0 87
22 1 28
22 2 47
22 3 43
22 4 84
22 5 34
22 6 81
22 7 3
22 8 62
22 9 73
22 10 66
22 11 97
22 12 71
22 13 89
22 14 82
22 15 88
22 16 85
22 17 19
22 18 82
22 19 74
22 20 62
22 21 6
23 0 29
23 1 61
23 2 32
23 3 17
23 4 75
23 5 12
23 6 32
23 7 95
23 8 48
23 9 69
23 10 94
23 11 6
23 12 26
23 13 60
23 14 29
23 15 42
23 16 10
23 17 27
23 18 97
23 19 92
23 20 20
23 21 50
23 22 29
24 0 9
24 1 94
24 2 44
24 3 51
24 4 20
24 5 38
24 6 48
24 7 39
24 8 59
24 9 76
24 10 55
24 11 76
24 12 24
24 13 96
24 14 25
24 15 15
24 16 81
24 17 79
24 18 98
24 19 60
24 20 78
24 21 74
24 22 99
24 23 20
25 0 34
25 1 40
25 2 90
25 3 96
25 4 11
25 5 85
25 6 14
25 7 4
25 8 96
25 9 51
25 10 53
25 11 54
25 12 38
25 13 45
25 14 75
25 15 26
25 16 33
25 17 10
25 18 41
25 19 23
25 20 41
25 21 76
25 22 21
25 23 84
25 24 69
26 0 46
26 1 8
26 2 93
26 3 76
26 4 7
26 5 61
26 6 10
26 7 75
26 8 58
26 9 84
26 10 15
26 11 28
26 12 16
26 13 46
26 14 51
26 15 65
26 16 22
26 17 95
26 18 84
26 19 86
26 20 66
26 21 4
26 22 27
26 23 9
26 24 14
26 25 81
27 0 10
27 1 77
27 2 81
27 3 2
27 4 74
27 5 46
27 6 7
27 7 67
27 8 20
27 9 8
27 10 17
27 11 85
27 12 59
27 13 26
27 14 76
27 15 30
27 16 30
27 17 76
27 18 73
27 19 36
27 20 85
27 21 41
27 22 81
27 23 13
27 24 57
27 25 82
27 26 98
28 0 9
28 1 64
28 2 91
28 3 56
28 4 42
28 5 9
28 6 10
28 7 40
28 8 88
28 9 87
28 10 41
28 11 79
28 12 90
28 13 2
28 14 20
28 15 83
28 16 21
28 17 53
28 18 5
28 19 45
28 20 37
28 21 57
28 22 98
28 23 31
28 24 73
28 25 99
28 26 24
28 27 20
29 0 86
29 1 34
29 2 15
29 3 84
29 4 55
29 5 90
29 6 80
29 7 2
29 8 69
29 9 35
29 10 59
29 11 57
29 12 81
29 13 11
29 14 94
29 15 58
29 16 8
29 17 49
29 18 63
29 19 89
29 20 94
29 21 17
29 22 57
29 23 73
29 24 74
29 25 66
29 26 4
29 27 99
29 28 13
30 0 80
30 1 57
30 2 66
30 3 91
30 4 30
30 5 14
30 6 26
30 7 66
30 8 5
30 9 32
30 10 30
30 11 45
30 12 65
30 13 46
30 14 24
30 15 32
30 16 36
30 17 16
30 18 33
30 19 36
30 20 39
30 21 55
30 22 39
30 23 65
30 24 29
30 25 18
30 26 39
30 27 31
30 28 97
30 29 43
31 0 34
31 1 43
31 2 24
31 3 90
31 4 98
31 5 69
31 6 36
31 7 8
31 8 6
31 9 87
31 10 71
31 11 27
31 12 49
31 13 60
31 14 55
31 15 61
31 16 41
31 17 4
31 18 67
31 19 60
31 20 100
31 21 33
31 22 28
31 23 55
31 24 70
31 25 4
31 26 42
31 27 79
31 28 10
31 29 88
31 30 72
32 0 65
32 1 60
32 2 47
32 3 52
32 4 43
32 5 59
32 6 92
32 7 32
32 8 94
32 9 100
32 10 52
32 11 32
32 12 34
32 13 13
32 14 74
32 15 51
32 16 31
32 17 32
32 18 41
32 19 44
32 20 84
32 21 79
32 22 73
32 23 72
32 24 17
32 25 73
32 26 51
32 27 90
32 28 53
32 29 57
32 30 78
32 31 18
33 0 87
33 1 76
33 2 69
33 3 24
33 4 79
33 5 75
33 6 26
33 7 1
33 8 7
33 9 89
33 10 47
33 11 21
33 12 77
33 13 37
33 14 86
33 15 10
33 16 80
33 17 56
33 18 33
33 19 52
33 20 18
33 21 31
33 22 8
33 23 38
33 24 67
33 25 3
33 26 81
33 27 12
33 28 41
33 29 66
33 30 56
33 31 76
33 32 61
34 0 80
34 1 84
34 2 56
34 3 60
34 4 71
34 5 98
34 6 47
34 7 76
34 8 83
34 9 79
34 10 85
34 11 1
34 12 11
34 13 95
34 14 13
34 15 2
34 16 25
34 17 79
34 18 43
34 19 27
34 20 71
34 21 33
34 22 21
34 23 61
34 24 99
34 25 73
34 26 66
34 27 98
34 28 60
34 29 58
34 30 20
34 31 36
34 32 81
34 33 59
35 0 37
35 1 22
35 2 82
35 3 65
35 4 11
35 5 1
35 6 29
35 7 41
35 8 94
35 9 37
35 10 17
35 11 71
35 12 80
35 13 20
35 14 23
35 15 56
35 16 45
35 17 80
35 18 86
35 19 53
35 20 60
35 21 54
35 22 97
35 23 74
35 24 39
35 25 97
35 26 13
35 27 77
35 28 70
35 29 26
35 30 13
35 31 21
35 32 41
35 33 33
35 34 73
36 0 73
36 1 83
36 2 9
36 3 30
36 4 74
36 5 59
36 6 65
36 7 48
36 8 15
36 9 87
36 10 56
36 11 16
36 12 82
36 13 83
36 14 13
36 15 48
36 16 50
36 17 54
36 18 63
36 19 46
36 20 64
36 21 71
36 22 95
36 23 60
36 24 18
36 25 10
36 26 77
36 27 53
36 28 21
36 29 47
36 30 64
36 31 54
36 32 27
36 33 25
36 34 24
36 35 62
37 0 37
37 1 50
37 2 86
37 3 15
37 4 31
37 5 80
37 6 94
37 7 71
37 8 83
37 9 92
37 10 97
37 11 33
37 12 45
37 13 75
37 14 37
37 15 26
37 16 20
37 17 63
37 18 99
37 19 21
37 20 69
37 21 5
37 22 29
37 23 37
37 24 2
37 25 50
37 26 51
37 27 95
37 28 57
37 29 75
37 30 35
37 31 85
37 32 70
37 33 7
37 34 82
37 35 72
37 36 85
38 0 93
38 1 46
38 2 69
38 3 60
38 4 33
38 5 100
38 6 33
38 7 66
38 8 87
38 9 19
38 10 60
38 11 88
38 12 98
38 13 34
38 14 11
38 15 69
38 16 11
38 17 83
38 18 75
38 19 62
38 20 80
38 21 64
38 22 40
38 23 81
38 24 76
38 25 56
38 26 63
38 27 62
38 28 59
38 29 84
38 30 25
38 31 74
38 32 63
38 33 20
38 34 27
38 35 49
38 36 10
38 37 58
39 0 74
39 1 12
39 2 61
39 3 11
39 4 31
39 5 40
39 6 54
39 7 4
39 8 57
39 9 66
39 10 97
39 11 68
39 12 63
39 13 20
39 14 17
39 15 67
39 16 26
39 17 73
39 18 81
39 19 95
39 20 80
39 21 15
39 22 37
39 23 37
39 24 52
39 25 94
39 26 42
39 27 83
39 28 4
39 29 94
39 30 81
39 31 36
39 32 32
39 33 23
39 34 89
39 35 44
39 36 99
39 37 47
39 38 22
40 0 59
40 1 16
40 2 92
40 3 57
40 4 6
40 5 4
40 6 85
40 7 6
40 8 92
40 9 96
40 10 27
40 11 74
40 12 20
40 13 51
40 14 7
40 15 92
40 16 64
40 17 15
40 18 1
40 19 18
40 20 27
40 21 24
40 22 9
40 23 82
40 24 94
40 25 46
40 26 40
40 27 100
40 28 39
40 29 15
40 30 41
40 31 17
40 32 66
40 33 85
40 34 20
40 35 25
40 36 76
40 37 24
40 38 15
40 39 73
41 0 97
41 1 14
41 2 22
41 3 83
41 4 22
41 5 42
41 6 65
41 7 10
41 8 37
41 9 78
41 10 78
41 11 28
41 12 36
41 13 90
41 14 41
41 15 33
41 16 55
41 17 36
41 18 72
41 19 77
41 20 75
41 21 39
41 22 80
41 23 99
41 24 65
41 25 24
41 26 34
41 27 93
41 28 82
41 29 80
41 30 91
41 31 39
41 32 36
41 33 85
41 34 90
41 35 99
41 36 85
41 37 83
41 38 21
41 39 28
41 40 36
42 0 23
42 1 2
42 2 74
42 3 49
42 4 97
42 5 42
42 6 60
42 7 70
42 8 19
42 9 65
42 10 71
42 11 54
42 12 51
42 13 16
42 14 84
42 15 44
42 16 65
42 17 97
42 18 26
42 19 18
42 20 85
42 21 76
42 22 40
42 23 22
42 24 66
42 25 82
42 26 89
42 27 46
42 28 84
42 29 87
42 30 48
42 31 20
42 32 64
42 33 10
42 34 36
42 35 30
42 36 52
42 37 30
42 38 11
42 39 82
42 40 22
42 41 64
43 0 18
43 1 67
43 2 71
43 3 59
43 4 65
43 5 97
43 6 31
43 7 10
43 8 78
43 9 30
43 10 17
43 11 82
43 12 36
43 13 94
43 14 83
43 15 30
43 16 11
43 17 65
43 18 55
43 19 13
43 20 53
43 21 87
43 22 61
43 23 62
43 24 94
43 25 29
43 26 84
43 27 53
43 28 66
43 29 94
43 30 98
43 31 81
43 32 53
43 33 59
43 34 73
43 35 44
43 36 21
43 37 95
43 38 51
43 39 83
43 40 5
43 41 90
43 42 38
44 0 39
44 1 33
44 2 84
44 3 47
44 4 15
44 5 31
44 6 89
44 7 13
44 8 59
44 9 25
44 10 47
44 11 41
44 12 9
44 13 37
44 14 49
44 15 66
44 16 62
44 17 59
44 18 31
44 19 46
44 20 58
44 21 28
44 22 95
44 23 100
44 24 93
44 25 38
44 26 51
44 27 78
44 28 99
44 29 82
44 30 52
44 31 8
44 32 56
44 33 96
44 34 81
44 35 72
44 36 32
44 37 40
44 38 19
44 39 6
44 40 55
44 41 57
44 42 80
44 43 10
45 0 56
45 1 81
45 2 15
45 3 25
45 4 68
45 5 90
45 6 10
45 7 21
45 8 36
45 9 25
45 10 28
45 11 82
45 12 88
45 13 23
45 14 81
45 15 99
45 16 79
45 17 23
45 18 23
45 19 1
45 20 89
45 21 64
45 22 93
45 23 85
45 24 58
45 25 67
45 26 72
45 27 23
45 28 70
45 29 73
45 30 7
45 31 67
45 32 32
45 33 87
45 34 35
45 35 62
45 36 13
45 37 39
45 38 2
45 39 53
45 40 16
45 41 74
45 42 57
45 43 49
45 44 27
46 0 17
46 1 76
46 2 56
46 3 49
46 4 89
46 5 29
46 6 23
46 7 9
46 8 65
46 9 22
46 10 45
46 11 14
46 12 95
46 13 51
46 14 14
46 15 77
46 16 38
46 17 53
46 18 23
46 19 52
46 20 72
46 21 66
46 22 64
46 23 34
46 24 87
46 25 2
46 26 61
46 27 30
46 28 66
46 29 4
46 30 46
46 31 98
46 32 16
46 33 62
46 34 57
46 35 4
46 36 9
46 37 79
46 38 23
46 39 60
46 40 34
46 41 20
46 42 62
46 43 31
46 44 78
46 45 8
47 0 1
47 1 19
47 2 79
47 3 15
47 4 17
47 5 82
47 6 31
47 7 85
47 8 22
47 9 30
47 10 29
47 11 87
47 12 70
47 13 3
47 14 71
47 15 68
47 16 52
47 17 40
47 18 81
47 19 71
47 20 98
47 21 75
47 22 93
47 23 29
47 24 12
47 25 35
47 26 28
47 27 60
47 28 4
47 29 19
47 30 56
47 31 10
47 32 98
47 33 72
47 34 98
47 35 23
47 36 27
47 37 8
47 38 45
47 39 47
47 40 47
47 41 25
47 42 86
47 43 92
47 44 25
47 45 20
47 46 54
48 0 1
48 1 95
48 2 9
48 3 57
48 4 1
48 5 72
48 6 93
48 7 49
48 8 52
48 9 78
48 10 33
48 11 41
48 12 100
48 13 21
48 14 30
48 15 70
48 16 6
48 17 23
48 18 16
48 19 87
48 20 11
48 21 90
48 22 100
48 23 3
48 24 55
48 25 82
48 26 36
48 27 27
48 28 65
48 29 8
48 30 91
48 31 87
48 32 64
48 33 64
48 34 48
48 35 90
48 36 87
48 37 88
48 38 58
48 39 100
48 40 100
48 41 1
48 42 29
48 43 17
48 44 49
48 45 58
48 46 24
48 47 80
49 0 90
49 1 16
49 2 94
49 3 46
49 4 79
49 5 17
49 6 77
49 7 13
49 8 28
49 9 22
49 10 36
49 11 81
49 12 42
49 13 54
49 14 16
49 15 67
49 16 1
49 17 27
49 18 44
49 19 36
49 20 62
49 21 86
49 22 99
49 23 96
49 24 71
49 25 69
49 26 37
49 27 73
49 28 33
49 29 67
49 30 34
49 31 76
49 32 70
49 33 54
49 34 82
49 35 96
49 36 62
49 37 6
49 38 72
49 39 21
49 40 61
49 41 29
49 42 24
49 43 51
49 44 5
49 45 63
49 46 54
49 47 35
49 48 100
50 0 49
50 1 2
50 2 86
50 3 25
50 4 53
50 5 46
50 6 32
50 7 73
50 8 94
50 9 80
50 10 7
50 11 58
50 12 27
50 13 32
50 14 98
50 15 30
50 16 68
50 17 54
50 18 96
50 19 92
50 20 62
50 21 1
50 22 26
50 23 92
50 24 43
50 25 86
50 26 34
50 27 52
50 28 22
50 29 84
50 30 84
50 31 60
50 32 4
50 33 7
50 34 72
50 35 9
50 36 39
50 37 91
50 38 62
50 39 94
50 40 28
50 41 50
50 42 15
50 43 80
50 44 60
50 45 98
50 46 49
50 47 100
50 48 53
50 49 47
51 0 61
51 1 63
51 2 7
51 3 24
51 4 92
51 5 71
51 6 4
51 7 63
51 8 34
51 9 62
51 10 14
51 11 72
51 12 81
51 13 53
51 14 92
51 15 90
51 16 91
51 17 40
51 18 70
51 19 56
51 20 18
51 21 62
51 22 74
51 23 78
51 24 13
51 25 68
51 26 41
51 27 78
51 28 15
51 29 15
51 30 93
51 31 27
51 32 71
51 33 4
51 34 2
51 35 15
51 36 71
51 37 24
51 38 63
51 39 16
51 40 78
51 41 60
51 42 38
51 43 41
51 44 81
51 45 99
51 46 55
51 47 92
51 48 15
51 49 9
51 50 66
52 0 55
52 1 22
52 2 15
52 3 11
52 4 97
52 5 44
52 6 69
52 7 20
52 8 58
52 9 72
52 10 89
52 11 66
52 12 54
52 13 93
52 14 33
52 15 56
52 16 25
52 17 10
52 18 16
52 19 1
52 20 93
52 21 31
52 22 83
52 23 24
52 24 30
52 25 40
52 26 19
52 27 90
52 28 34
52 29 8
52 30 35
52 31 59
52 32 67
52 33 3
52 34 63
52 35 1
52 36 9
52 37 99
52 38 76
52 39 36
52 40 24
52 41 12
52 42 73
52 43 71
52 44 48
52 45 95
52 46 35
52 47 48
52 48 47
52 49 74
52 50 19
52 51 40
53 0 91
53 1 13
53 2 45
53 3 46
53 4 62
53 5 36
53 6 12
53 7 71
53 8 77
53 9 46
53 10 30
53 11 1
53 12 94
53 13 13
53 14 58
53 15 7
53 16 52
53 17 30
53 18 90
53 19 28
53 20 30
53 21 50
53 22 27
53 23 32
53 24 55
53 25 60
53 26 18
53 27 38
53 28 84
53 29 56
53 30 80
53 31 66
53 32 28
53 33 13
53 34 3
53 35 41
53 36 14
53 37 77
53 38 14
53 39 57
53 40 92
53 41 23
53 42 66
53 43 88
53 44 31
53 45 42
53 46 55
53 47 11
53 48 61
53 49 67
53 50 91
53 51 59
53 52 63
54 0 44
54 1 79
54 2 22
54 3 13
54 4 3
54 5 84
54 6 84
54 7 14
54 8 97
54 9 81
54 10 35
54 11 100
54 12 6
54 13 22
54 14 23
54 15 75
54 16 25
54 17 64
54 18 12
54 19 25
54 20 77
54 21 40
54 22 72
54 23 29
54 24 35
54 25 81
54 26 28
54 27 37
54 28 36
54 29 98
54 30 23
54 31 9
54 32 11
54 33 97
54 34 76
54 35 14
54 36 85
54 37 91
54 38 58
54 39 55
54 40 98
54 41 9
54 42 99
54 43 56
54 44 70
54 45 44
54 46 98
54 47 18
54 48 6
54 49 73
54 50 20
54 51 59
54 52 99
54 53 40
55 0 74
55 1 62
55 2 5
55 3 98
55 4 22
55 5 15
55 6 67
55 7 37
55 8 67
55 9 17
55 10 41
55 11 51
55 12 7
55 13 76
55 14 31
55 15 22
55 16 63
55 17 29
55 18 38
55 19 19
55 20 11
55 21 54
55 22 96
55 23 47
55 24 80
55 25 62
55 26 26
55 27 87
55 28 1
55 29 85
55 30 52
55 31 10
55 32 4
55 33 95
55 34 50
55 35 73
55 36 18
55 37 23
55 38 20
55 39 9
55 40 2
55 41 68
55 42 12
55 43 79
55 44 19
55 45 3
55 46 46
55 47 49
55 48 46
55 49 31
55 50 91
55 51 3
55 52 51
55 53 36
55 54 11
56 0 18
56 1 9
56 2 39
56 3 90
56 4 53
56 5 24
56 6 63
56 7 84
56 8 15
56 9 76
56 10 43
56 11 70
56 12 37
56 13 25
56 14 53
56 15 90
56 16 52
56 17 23
56 18 37
56 19 8
56 20 54
56 21 27
56 22 55
56 23 26
56 24 99
56 25 14
56 26 93
56 27 36
56 28 51
56 29 34
56 30 86
56 31 88
56 32 14
56 33 63
56 34 60
56 35 15
56 36 85
56 37 27
56 38 92
56 39 46
56 40 10
56 41 21
56 42 46
56 43 82
56 44 57
56 45 46
56 46 27
56 47 32
56 48 7
56 49 22
56 50 61
56 51 32
56 52 48
56 53 69
56 54 8
56 55 79
57 0 18
57 1 50
57 2 49
57 3 78
57 4 20
57 5 29
57 6 2
57 7 63
57 8 27
57 9 75
57 10 79
57 11 44
57 12 29
57 13 28
57 14 71
57 15 4
57 16 2
57 17 4
57 18 25
57 19 32
57 20 97
57 21 94
57 22 56
57 23 71
57 24 86
57 25 3
57 26 3
57 27 23
57 28 97
57 29 23
57 30 27
57 31 38
57 32 40
57 33 32
57 34 1
57 35 63
57 36 100
57 37 73
57 38 55
57 39 55
57 40 55
57 41 50
57 42 59
57 43 67
57 44 31
57 45 45
57 46 67
57 47 62
57 48 15
57 49 41
57 50 54
57 51 16
57 52 88
57 53 10
57 54 15
57 55 17
57 56 36
58 0 100
58 1 20
58 2 73
58 3 71
58 4 23
58 5 24
58 6 75
58 7 49
58 8 42
58 9 86
58 10 90
58 11 78
58 12 88
58 13 61
58 14 73
58 15 60
58 16 79
58 17 42
58 18 31
58 19 99
58 20 7
58 21 82
58 22 68
58 23 60
58 24 12
58 25 23
58 26 93
58 27 88
58 28 76
58 29 2
58 30 87
58 31 5
58 32 89
58 33 26
58 34 41
58 35 35
58 36 76
58 37 29
58 38 22
58 39 47
58 40 88
58 41 39
58 42 30
58 43 1
58 44 99
58 45 41
58 46 40
58 47 41
58 48 56
58 49 7
58 50 59
58 51 70
58 52 74
58 53 16
58 54 38
58 55 97
58 56 79
58 57 5
59 0 2
59 1 53
59 2 35
59 3 3
59 4 13
59 5 6
59 6 10
59 7 59
59 8 67
59 9 15
59 10 73
59 11 55
59 12 81
59 13 18
59 14 14
59 15 62
59 16 42
59 17 49
59 18 42
59 19 92
59 20 3
59 21 95
59 22 91
59 23 40
59 24 64
59 25 77
59 26 51
59 27 34
59 28 65
59 29 1
59 30 1
59 31 21
59 32 73
59 33 100
59 34 100
59 35 65
59 36 61
59 37 86
59 38 74
59 39 46
59 40 90
59 41 66
59 42 8
59 43 61
59 44 42
59 45 98
59 46 22
59 47 86
59 48 86
59 49 93
59 50 87
59 51 48
59 52 53
59 53 84
59 54 28
59 55 1
59 56 66
59 57 14
59 58 100
60 0 31
60 1 39
60 2 31
60 3 48
60 4 4
60 5 49
60 6 73
60 7 75
60 8 54
60 9 50
60 10 89
60 11 87
60 12 69
60 13 65
60 14 36
60 15 96
60 16 19
60 17 100
60 18 31
60 19 81
60 20 39
60 21 40
60 22 65
60 23 51
60 24 48
60 25 37
60 26 99
60 27 61
60 28 87
60 29 6
60 30 1
60 31 64
60 32 99
60 33 63
60 34 90
60 35 19
60 36 69
60 37 99
60 38 8
60 39 69
60 40 22
60 41 59
60 42 23
60 43 59
60 44 31
60 45 74
60 46 34
60 47 82
60 48 82
60 49 66
60 50 47
60 51 48
60 52 12
60 53 15
60 54 23
60 55 15
60 56 2
60 57 75
60 58 31
60 59 47
61 0 98
61 1 63
61 2 48
61 3 73
61 4 89
61 5 65
61 6 95
61 7 56
61 8 73
61 9 31
61 10 100
61 11 11
61 12 77
61 13 52
61 14 24
61 15 24
61 16 21
61 17 46
61 18 91
61 19 63
61 20 43
61 21 90
61 22 17
61 23 79
61 24 21
61 25 74
61 26 15
61 27 34
61 28 55
61 29 76
61 30 29
61 31 25
61 32 3
61 33 69
61 34 25
61 35 68
61 36 83
61 37 16
61 38 41
61 39 60
61 40 85
61 41 13
61 42 68
61 43 66
61 44 44
61 45 89
61 46 22
61 47 54
61 48 79
61 49 71
61 50 30
61 51 100
61 52 10
61 53 68
61 54 25
61 55 48
61 56 79
61 57 41
61 58 47
61 59 62
61 60 54
62 0 53
62 1 71
62 2 30
62 3 5
62 4 25
62 5 25
62 6 9
62 7 54
62 8 45
62 9 66
62 10 8
62 11 50
62 12 83
62 13 19
62 14 52
62 15 32
62 16 39
62 17 9
62 18 73
62 19 65
62 20 14
62 21 28
62 22 35
62 23 64
62 24 66
62 25 31
62 26 64
62 27 53
62 28 24
62 29 45
62 30 59
62 31 12
62 32 39
62 33 28
62 34 6
62 35 9
62 36 16
62 37 27
62 38 97
62 39 32
62 40 54
62 41 19
62 42 66
62 43 53
62 44 69
62 45 18
62 46 52
62 47 1
62 48 2
62 49 2
62 50 78
62 51 18
62 52 33
62 53 86
62 54 5
62 55 28
62 56 29
62 57 39
62 58 80
62 59 40
62 60 23
62 61 27
63 0 12
63 1 77
63 2 2
63 3 30
63 4 26
63 5 86
63 6 27
63 7 68
63 8 88
63 9 73
63 10 37
63 11 23
63 12 6
63 13 88
63 14 1
63 15 48
63 16 34
63 17 26
63 18 21
63 19 9
63 20 47
63 21 31
63 22 95
63 23 91
63 24 61
63 25 31
63 26 100
63 27 57
63 28 16
63 29 23
63 30 55
63 31 60
63 32 48
63 33 92
63 34 63
63 35 30
63 36 5
63 37 35
63 38 59
63 39 3
63 40 5
63 41 23
63 42 91
63 43 42
63 44 23
63 45 23
63 46 32
63 47 80
63 48 65
63 49 62
63 50 96
63 51 97
63 52 60
63 53 6
63 54 88
63 55 84
63 56 80
63 57 75
63 58 34
63 59 71
63 60 70
63 61 43
63 62 59
64 0 33
64 1 51
64 2 67
64 3 9
64 4 73
64 5 19
64 6 58
64 7 43
64 8 72
64 9 57
64 10 82
64 11 33
64 12 46
64 13 49
64 14 62
64 15 46
64 16 36
64 17 24
64 18 14
64 19 3
64 20 53
64 21 15
64 22 28
64 23 42
64 24 21
64 25 82
64 26 1
64 27 17
64 28 4
64 29 36
64 30 60
64 31 20
64 32 19
64 33 76
64 34 40
64 35 7
64 36 58
64 37 13
64 38 13
64 39 58
64 40 68
64 41 56
64 42 72
64 43 19
64 44 78
64 45 67
64 46 14
64 47 80
64 48 58
64 49 21
64 50 95
64 51 9
64 52 55
64 53 39
64 54 28
64 55 39
64 56 46
64 57 48
64 58 54
64 59 77
64 60 82
64 61 18
64 62 24
64 63 81
65 0 42
65 1 67
65 2 44
65 3 25
65 4 5
65 5 27
65 6 92
65 7 47
65 8 100
65 9 29
65 10 100
65 11 55
65 12 17
65 13 30
65 14 59
65 15 38
65 16 67
65 17 13
65 18 100
65 19 84
65 20 33
65 21 7
65 22 46
65 23 32
65 24 50
65 25 31
65 26 46
65 27 1
65 28 5
65 29 46
65 30 35
65 31 60
65 32 43
65 33 71
65 34 74
65 35 43
65 36 22
65 37 2
65 38 79
65 39 27
65 40 60
65 41 34
65 42 28
65 43 15
65 44 47
65 45 76
65 46 11
65 47 5
65 48 37
65 49 15
65 50 64
65 51 23
65 52 37
65 53 59
65 54 100
65 55 61
65 56 42
65 57 74
65 58 27
65 59 54
65 60 6
65 61 93
65 62 13
65 63 63
65 64 41
66 0 52
66 1 51
66 2 72
66 3 68
66 4 3
66 5 17
66 6 12
66 7 86
66 8 79
66 9 34
66 10 56
66 11 19
66 12 42
66 13 85
66 14 63
66 15 55
66 16 21
66 17 35
66 18 55
66 19 3
66 20 12
66 21 51
66 22 67
66 23 9
66 24 27
66 25 45
66 26 90
66 27 23
66 28 89
66 29 61
66 30 2
66 31 7
66 32 12
66 33 87
66 34 66
66 35 22
66 36 28
66 37 74
66 38 24
66 39 33
66 40 35
66 41 79
66 42 34
66 43 19
66 44 80
66 45 64
66 46 7
66 47 88
66 48 17
66 49 32
66 50 64
66 51 18
66 52 78
66 53 68
66 54 8
66 55 87
66 56 62
66 57 17
66 58 71
66 59 57
66 60 38
66 61 32
66 62 12
66 63 21
66 64 1
66 65 53
67 0 41
67 1 45
67 2 31
67 3 11
67 4 12
67 5 34
67 6 50
67 7 74
67 8 19
67 9 35
67 10 74
67 11 63
67 12 64
67 13 49
67 14 97
67 15 19
67 16 2
67 17 84
67 18 78
67 19 92
67 20 74
67 21 22
67 22 84
67 23 90
67 24 79
67 25 44
67 26 31
67 27 94
67 28 61
67 29 45
67 30 34
67 31 43
67 32 87
67 33 47
67 34 32
67 35 44
67 36 63
67 37 65
67 38 71
67 39 45
67 40 12
67 41 18
67 42 52
67 43 94
67 44 3
67 45 61
67 46 79
67 47 61
67 48 3
67 49 87
67 50 60
67 51 6
67 52 4
67 53 40
67 54 55
67 55 8
67 56 37
67 57 21
67 58 66
67 59 94
67 60 74
67 61 84
67 62 10
67 63 39
67 64 89
67 65 54
67 66 34
68 0 11
68 1 21
68 2 16
68 3 51
68 4 98
68 5 59
68 6 52
68 7 8
68 8 33
68 9 52
68 10 27
68 11 18
68 12 99
68 13 3
68 14 59
68 15 12
68 16 96
68 17 2
68 18 8
68 19 3
68 20 80
68 21 19
68 22 84
68 23 59
68 24 29
68 25 39
68 26 50
68 27 23
68 28 79
68 29 37
68 30 73
68 31 39
68 32 38
68 33 2
68 34 52
68 35 71
68 36 84
68 37 68
68 38 17
68 39 12
68 40 85
68 41 18
68 42 91
68 43 26
68 44 10
68 45 52
68 46 46
68 47 79
68 48 19
68 49 51
68 50 5
68 51 40
68 52 44
68 53 69
68 54 63
68 55 63
68 56 5
68 57 32
68 58 35
68 59 80
68 60 21
68 61 45
68 62 56
68 63 64
68 64 5
68 65 10
68 66 78
68 67 54
69 0 68
69 1 22
69 2 55
69 3 27
69 4 50
69 5 96
69 6 4
69 7 85
69 8 72
69 9 31
69 10 74
69 11 79
69 12 68
69 13 30
69 14 82
69 15 77
69 16 30
69 17 15
69 18 81
69 19 81
69 20 7
69 21 25
69 22 69
69 23 16
69 24 8
69 25 64
69 26 67
69 27 57
69 28 11
69 29 52
69 30 9
69 31 78
69 32 89
69 33 99
69 34 39
69 35 27
69 36 89
69 37 91
69 38 93
69 39 65
69 40 36
69 41 68
69 42 12
69 43 18
69 44 39
69 45 26
69 46 32
69 47 41
69 48 30
69 49 88
69 50 24
69 51 85
69 52 62
69 53 7
69 54 91
69 55 13
69 56 35
69 57 2
69 58 48
69 59 11
69 60 38
69 61 53
69 62 33
69 63 97
69 64 32
69 65 84
69 66 33
69 67 9
69 68 89
70 0 29
70 1 24
70 2 33
70 3 83
70 4 51
70 5 40
70 6 5
70 7 94
70 8 56
70 9 53
70 10 88
70 11 61
70 12 31
70 13 3
70 14 28
70 15 7
70 16 95
70 17 10
70 18 8
70 19 13
70 20 35
70 21 83
70 22 81
70 23 21
70 24 73
70 25 74
70 26 51
70 27 88
70 28 86
70 29 62
70 30 12
70 31 27
70 32 75
70 33 67
70 34 78
70 35 95
70 36 49
70 37 15
70 38 68
70 39 29
70 40 77
70 41 15
70 42 23
70 43 32
70 44 22
70 45 21
70 46 61
70 47 54
70 48 55
70 49 74
70 50 15
70 51 38
70 52 26
70 53 67
70 54 97
70 55 8
70 56 21
70 57 64
70 58 84
70 59 24
70 60 53
70 61 75
70 62 28
70 63 39
70 64 46
70 65 64
70 66 19
70 67 22
70 68 23
70 69 33
71 0 73
71 1 39
71 2 6
71 3 26
71 4 11
71 5 7
71 6 85
71 7 41
71 8 51
71 9 53
71 10 13
71 11 36
71 12 41
71 13 52
71 14 37
71 15 66
71 16 85
71 17 31
71 18 74
71 19 2
71 20 63
71 21 46
71 22 89
71 23 13
71 24 25
71 25 84
71 26 32
71 27 94
71 28 26
71 29 42
71 30 41
71 31 98
71 32 33
71 33 83
71 34 31
71 35 94
71 36 93
71 37 75
71 38 6
71 39 48
71 40 91
71 41 62
71 42 72
71 43 15
71 44 95
71 45 13
71 46 48
71 47 88
71 48 78
71 49 68
71 50 88
71 51 26
71 52 85
71 53 65
71 54 68
71 55 72
71 56 55
71 57 8
71 58 4
71 59 36
71 60 32
71 61 30
71 62 98
71 63 89
71 64 28
71 65 48
71 66 31
71 67 99
71 68 7
71 69 12
71 70 51
72 0 15
72 1 23
72 2 8
72 3 29
72 4 69
72 5 13
72 6 56
72 7 72
72 8 46
72 9 33
72 10 9
72 11 16
72 12 71
72 13 3
72 14 63
72 15 50
72 16 70
72 17 74
72 18 13
72 19 38
72 20 39
72 21 50
72 22 27
72 23 29
72 24 20
72 25 20
72 26 20
72 27 87
72 28 53
72 29 97
72 30 48
72 31 79
72 32 73
72 33 47
72 34 58
72 35 90
72 36 52
72 37 64
72 38 63
72 39 69
72 40 26
72 41 46
72 42 24
72 43 23
72 44 42
72 45 34
72 46 58
72 47 97
72 48 14
72 49 57
72 50 19
72 51 22
72 52 82
72 53 87
72 54 97
72 55 23
72 56 11
72 57 71
72 58 44
72 59 4
72 60 68
72 61 32
72 62 31
72 63 59
72 64 70
72 65 40
72 66 80
72 67 82
72 68 87
72 69 75
72 70 28
72 71 64
73 0 47
73 1 68
73 2 26
73 3 6
73 4 76
73 5 77
73 6 73
73 7 90
73 8 63
73 9 13
73 10 34
73 11 81
73 12 47
73 13 63
73 14 1
73 15 43
73 16 51
73 17 51
73 18 93
73 19 20
73 20 22
73 21 21
73 22 97
73 23 87
73 24 42
73 25 71
73 26 9
73 27 76
73 28 29
73 29 37
73 30 18
73 31 59
73 32 33
73 33 24
73 34 38
73 35 100
73 36 7
73 37 29
73 38 96
73 39 42
73 40 95
73 41 99
73 42 14
73 43 82
73 44 77
73 45 26
73 46 59
73 47 38
73 48 65
73 49 63
73 50 31
73 51 26
73 52 22
73 53 30
73 54 30
73 55 97
73 56 77
73 57 17
73 58 16
73 59 97
73 60 28
73 61 29
73 62 45
73 63 53
73 64 77
73 65 21
73 66 58
73 67 3
73 68 33
73 69 3
73 70 48
73 71 14
73 72 73
74 0 40
74 1 34
74 2 60
74 3 48
74 4 63
74 5 13
74 6 58
74 7 78
74 8 53
74 9 81
74 10 79
74 11 75
74 12 93
74 13 31
74 14 82
74 15 79
74 16 78
74 17 70
74 18 39
74 19 99
74 20 30
74 21 27
74 22 55
74 23 2
74 24 71
74 25 26
74 26 88
74 27 83
74 28 38
74 29 53
74 30 34
74 31 9
74 32 41
74 33 51
74 34 27
74 35 29
74 36 21
74 37 100
74 38 75
74 39 80
74 40 26
74 41 91
74 42 20
74 43 46
74 44 34
74 45 83
74 46 5
74 47 34
74 48 92
74 49 6
74 50 85
74 51 85
74 52 33
74 53 57
74 54 99
74 55 34
74 56 4
74 57 87
74 58 17
74 59 80
74 60 18
74 61 96
74 62 6
74 63 33
74 64 4
74 65 68
74 66 90
74 67 53
74 68 20
74 69 9
74 70 91
74 71 98
74 72 64
74 73 95
